p cnf 15 23
15 -14 -3 0
-15 -14 1 0
-15 -13 1 0
-15 -9 1 0
-15 8 -3 0
-15 -7 -3 0
-15 -5 3 0
-15 5 -2 0
-14 -12 8 0
-14 -11 5 0
-13 11 8 0
13 -5 4 0
13 4 -3 0
12 -5 -4 0
-11 -4 3 0
11 4 -1 0
-10 -8 -5 0
-10 -7 -4 0
-9 5 -3 0
9 5 -1 0
7 -2 -1 0
6 5 1 0
-6 -4 1 0
